unsat
((set-logic NIA)
(declare-fun n!0 () Int)
(declare-fun k!2 () Int)
(declare-fun m!1 () Int)
(declare-fun c!3 () Int)
(proof
(let ((?x904 (* (- 1) k!2)))
 (let ((?x429 (* n!0 n!0)))
 (let ((?x312 (* 3 ?x429)))
 (let ((?x209 (+ ?x312 ?x904 (* 3 n!0))))
 (let (($x809 (<= ?x209 0)))
 (let (($x358 (= ?x209 0)))
 (let ((?x338 (* 336 (* k!2 k!2 n!0))))
 (let ((?x895 (* 4 (* k!2 m!1 m!1))))
 (let ((?x738 (* 324 (* c!3 c!3))))
 (let ((?x761 (* 66 (* c!3 c!3 m!1))))
 (let ((?x503 (* (- 42) (* k!2 k!2 k!2))))
 (let ((?x567 (* m!1 m!1)))
 (let ((?x584 (* 12 ?x567)))
 (let ((?x540 (* k!2 m!1)))
 (let ((?x765 (* 24 ?x540)))
 (let ((?x439 (* 2 (* k!2 k!2 m!1 m!1))))
 (let ((?x501 (* (- 7) (* k!2 k!2 k!2 m!1))))
 (let ((?x577 (* 2 (* c!3 c!3 m!1 m!1))))
 (let ((?x377 (* 324 (* c!3 c!3 n!0))))
 (let ((?x194 (* 2 (* m!1 m!1 m!1))))
 (let ((?x391 (* 68 (* k!2 k!2 m!1))))
 (let ((?x182 (* k!2 k!2)))
 (let ((?x533 (* 336 ?x182)))
 (let ((?x800 (+ (* 648 (* k!2 c!3)) (* 108 (* c!3 c!3 n!0 m!1)) (* 648 (* k!2 c!3 n!0)) ?x533 ?x391 ?x194 (* 12 (* n!0 m!1 m!1)) ?x377 (* (- 42) (* k!2 c!3 c!3)) (* (- 84) (* k!2 k!2 c!3)) (* 132 (* k!2 c!3 m!1)) (* 216 (* k!2 c!3 n!0 m!1)) ?x577 (* 9 (* k!2 k!2 n!0 m!1 m!1)) ?x501 ?x439 ?x765 ?x584 ?x503 (* 9 (* c!3 c!3 n!0 m!1 m!1)) (* 4 (* k!2 c!3 m!1 m!1)) (* (- 14) (* k!2 k!2 c!3 m!1)) (* (- 7) (* k!2 c!3 c!3 m!1)) ?x761 (* 18 (* k!2 c!3 n!0 m!1 m!1)) (* 110 (* k!2 k!2 n!0 m!1)) (* 4 (* k!2 n!0 m!1 m!1)) (* 24 (* k!2 n!0 m!1)) (* 2 (* n!0 m!1 m!1 m!1)) ?x738 ?x895 ?x338)))
 (let (($x808 (= (* ?x800 (+ 6 ?x312 ?x904 (* 9 n!0) (* (- 1) m!1))) 0)))
 (let ((?x157 (* 2 n!0)))
 (let ((?x156 (* (- 3) c!3)))
 (let ((?x388 (* k!2 n!0)))
 (let ((?x732 (+ (* n!0 m!1) ?x388 (* (- 3) k!2) ?x156 ?x157)))
 (let ((?x909 (* (- 1) m!1)))
 (let ((?x427 (+ (* 6 n!0) ?x909)))
 (let (($x135 (= ?x427 (- 6))))
 (let (($x360 (not $x135)))
 (let ((?x911 (* 9 n!0)))
 (let ((?x241 (* c!3 n!0)))
 (let ((?x298 (* (- 9) ?x241)))
 (let ((?x146 (+ ?x182 ?x298 (* (- 9) ?x388) (* (- 32) k!2) (* (- 27) c!3) (* 2 ?x540) ?x567 ?x911 (* (- 5) m!1))))
 (let (($x693 (or (not (= (+ ?x312 ?x904 ?x911 ?x909) (- 6))) (not (= ?x146 (- 13))) $x360 (not (= ?x732 (- 2))) (not $x808))))
 (let ((?x357 (+ ?x388 ?x904 ?x156 ?x157)))
 (let (($x165 (= ?x357 0)))
 (let ((?x259 (+ ?x182 ?x298 (* (- 5) k!2) (* (- 18) c!3) ?x911)))
 (let (($x261 (= ?x259 (- 4))))
 (let (($x762 (and $x135 $x261 $x165 $x358 $x693)))
 (let ((?x903 (+ ?x533 (* 216 (* c!3 k!2 m!1 n!0)) ?x738 (* 108 (* c!3 c!3 m!1 n!0)) ?x761 (* 648 (* c!3 k!2 n!0)) ?x377 (* 648 (* c!3 k!2)) (* (- 42) (* c!3 c!3 k!2)) ?x391 (* (- 84) (* c!3 k!2 k!2)) (* 132 (* c!3 k!2 m!1)) ?x503 ?x765 ?x584 (* (- 7) (* c!3 c!3 k!2 m!1)) (* (- 14) (* c!3 k!2 k!2 m!1)) ?x501 ?x577 (* 4 (* c!3 k!2 m!1 m!1)) ?x439 (* 9 (* c!3 c!3 m!1 m!1 n!0)) (* 18 (* c!3 k!2 m!1 m!1 n!0)) (* 9 (* k!2 k!2 m!1 m!1 n!0)) (* 110 (* k!2 k!2 m!1 n!0)) (* 4 (* k!2 m!1 m!1 n!0)) (* 2 (* m!1 m!1 m!1 n!0)) ?x338 ?x194 (* 24 (* k!2 m!1 n!0)) ?x895 (* 12 (* m!1 m!1 n!0)))))
 (let ((?x452 (* (- 1) ?x388)))
 (let ((?x197 (* (- 2) n!0)))
 (let ((?x453 (* 3 c!3)))
 (let (($x207 (= (+ ?x453 (* 3 k!2) ?x197 ?x452 (* (- 1) (* m!1 n!0))) 2)))
 (let ((?x450 (* 9 ?x241)))
 (let ((?x514 (* (- 1) ?x182)))
 (let ((?x191 (* (- 9) n!0)))
 (let ((?x495 (+ (* 27 c!3) (* 32 k!2) (* 5 m!1) ?x191 ?x514 (* 9 ?x388) ?x450 (* (- 2) ?x540) (* (- 1) ?x567))))
 (let (($x691 (or (not (= (+ k!2 m!1 ?x191 (* (- 3) ?x429)) 6)) (not (= (+ m!1 (* (- 6) n!0)) 6)) (not (= ?x495 13)) (not $x207) (not (= (* ?x903 (+ 6 ?x904 ?x909 ?x911 ?x312)) 0)))))
 (let (($x1065 (= (+ m!1 (* (- 6) n!0)) 6)))
 (let (($x217 (and $x1065 (= (+ (* 18 c!3) (* 5 k!2) ?x191 ?x514 ?x450) 4) (= (+ ?x453 k!2 ?x197 ?x452) 0) (= (+ k!2 (* (- 3) n!0) (* (- 3) ?x429)) 0) $x691)))
 (let (($x500 (exists ((c Int) (k Int) (m Int) (n Int) )(! (let ((?x272 (* n n)))
 (let ((?x273 (* 3 ?x272)))
 (let ((?x45 (* 9 n)))
 (let ((?x478 (* (- 1) m)))
 (let ((?x240 (* (- 1) k)))
 (let ((?x728 (* 2 (* m m m n))))
 (let ((?x688 (* 9 (* k k m m n))))
 (let ((?x682 (* 9 (* c c m m n))))
 (let ((?x608 (* (- 7) (* k k k m))))
 (let ((?x602 (* (- 7) (* c c k m))))
 (let ((?x1019 (+ (* 336 (* k k)) (* 216 (* c k m n)) (* 324 (* c c)) (* 108 (* c c m n)) (* 66 (* c c m)) (* 648 (* c k n)) (* 324 (* c c n)) (* 648 (* c k)) (* (- 42) (* c c k)) (* 68 (* k k m)) (* (- 84) (* c k k)) (* 132 (* c k m)) (* (- 42) (* k k k)) (* 24 (* k m)) (* 12 (* m m)) ?x602 (* (- 14) (* c k k m)) ?x608 (* 2 (* c c m m)) (* 4 (* c k m m)) (* 2 (* k k m m)) ?x682 (* 18 (* c k m m n)) ?x688 (* 110 (* k k m n)) (* 4 (* k m m n)) ?x728 (* 336 (* k k n)) (* 2 (* m m m)) (* 24 (* k m n)) (* 4 (* k m m)) (* 12 (* m m n)))))
 (let ((?x52 (* k n)))
 (let ((?x265 (* (- 1) ?x52)))
 (let ((?x264 (* (- 2) n)))
 (let ((?x262 (* 3 c)))
 (let (($x547 (= (+ ?x262 (* 3 k) ?x264 ?x265 (* (- 1) (* m n))) 2)))
 (let (($x555 (not $x547)))
 (let ((?x162 (* 9 (* c n))))
 (let ((?x46 (* k k)))
 (let ((?x225 (* (- 1) ?x46)))
 (let ((?x224 (* (- 9) n)))
 (let ((?x437 (* 5 m)))
 (let ((?x525 (+ (* 27 c) (* 32 k) ?x437 ?x224 ?x225 (* 9 ?x52) ?x162 (* (- 2) (* k m)) (* (- 1) (* m m)))))
 (let (($x529 (not (= ?x525 13))))
 (let (($x145 (= (+ m (* (- 6) n)) 6)))
 (let (($x363 (not $x145)))
 (let (($x834 (or (not (= (+ k m ?x224 (* (- 3) ?x272)) 6)) $x363 $x529 $x555 (not (= (* ?x1019 (+ 6 ?x240 ?x478 ?x45 ?x273)) 0)))))
 (let (($x303 (= (+ k (* (- 3) n) (* (- 3) ?x272)) 0)))
 (let (($x267 (= (+ ?x262 k ?x264 ?x265) 0)))
 (let (($x222 (= (+ (* 18 c) (* 5 k) ?x224 ?x225 ?x162) 4)))
 (and $x145 $x222 $x267 $x303 $x834))))))))))))))))))))))))))))))) :qid k!38))
 ))
 (let (($x356 (exists ((c Int) (k Int) (m Int) (n Int) )(! (let (($x145 (= (+ m (* (- 6) n)) 6)))
 (let (($x363 (not $x145)))
 (let ((?x224 (* (- 9) n)))
 (let ((?x437 (* 5 m)))
 (let ((?x37 (* 18 c)))
 (let ((?x554 (+ ?x37 (* 23 k) (* 9 (* (+ 1 n) (+ c k))) ?x437 ?x224 (* (- 1) (* (+ k m) (+ k m))))))
 (let ((?x61 (* 3 n)))
 (let ((?x478 (* (- 1) m)))
 (let ((?x240 (* (- 1) k)))
 (let ((?x512 (* 3 (* (+ 1 n) (+ 1 n)))))
 (let (($x289 (not (= (+ ?x512 ?x240 ?x478 ?x61) (- 3)))))
 (let ((?x245 (* 2 (* (+ 1 n) (+ 6 m) (+ k m) (+ k m)))))
 (let ((?x71 (+ c k)))
 (let ((?x275 (+ 6 m)))
 (let ((?x442 (+ 1 n)))
 (let ((?x253 (+ (* (- 7) (* ?x275 (+ k m) ?x71 ?x71)) (* 9 (* ?x442 ?x275 ?x275 ?x71 ?x71)) ?x245)))
 (let (($x254 (not (= (* ?x253 (+ 3 ?x512 ?x240 ?x478 ?x61)) 0))))
 (let ((?x264 (* (- 2) n)))
 (let ((?x262 (* 3 c)))
 (let (($x423 (= (+ ?x262 (* 4 k) (* (- 1) (* ?x442 (+ k m))) m ?x264) 2)))
 (let (($x518 (= (+ (* 3 (* n n)) ?x240 ?x61) 0)))
 (let ((?x46 (* k k)))
 (let ((?x225 (* (- 1) ?x46)))
 (let ((?x41 (* 5 k)))
 (and $x145 (= (+ ?x37 (* 9 (* n c)) ?x41 ?x224 ?x225) 4) (= (+ ?x262 (* (- 1) (* n k)) k ?x264) 0) $x518 (or (not $x423) $x254 $x289 (not (= ?x554 13)) $x363)))))))))))))))))))))))))) :qid k!38))
 ))
 (let ((?x557 (lambda ((c Int) (k Int) (m Int) (n Int) )(let ((?x272 (* n n)))
 (let ((?x273 (* 3 ?x272)))
 (let ((?x45 (* 9 n)))
 (let ((?x478 (* (- 1) m)))
 (let ((?x240 (* (- 1) k)))
 (let ((?x728 (* 2 (* m m m n))))
 (let ((?x688 (* 9 (* k k m m n))))
 (let ((?x682 (* 9 (* c c m m n))))
 (let ((?x608 (* (- 7) (* k k k m))))
 (let ((?x602 (* (- 7) (* c c k m))))
 (let ((?x1019 (+ (* 336 (* k k)) (* 216 (* c k m n)) (* 324 (* c c)) (* 108 (* c c m n)) (* 66 (* c c m)) (* 648 (* c k n)) (* 324 (* c c n)) (* 648 (* c k)) (* (- 42) (* c c k)) (* 68 (* k k m)) (* (- 84) (* c k k)) (* 132 (* c k m)) (* (- 42) (* k k k)) (* 24 (* k m)) (* 12 (* m m)) ?x602 (* (- 14) (* c k k m)) ?x608 (* 2 (* c c m m)) (* 4 (* c k m m)) (* 2 (* k k m m)) ?x682 (* 18 (* c k m m n)) ?x688 (* 110 (* k k m n)) (* 4 (* k m m n)) ?x728 (* 336 (* k k n)) (* 2 (* m m m)) (* 24 (* k m n)) (* 4 (* k m m)) (* 12 (* m m n)))))
 (let ((?x52 (* k n)))
 (let ((?x265 (* (- 1) ?x52)))
 (let ((?x264 (* (- 2) n)))
 (let ((?x262 (* 3 c)))
 (let (($x547 (= (+ ?x262 (* 3 k) ?x264 ?x265 (* (- 1) (* m n))) 2)))
 (let (($x555 (not $x547)))
 (let ((?x162 (* 9 (* c n))))
 (let ((?x46 (* k k)))
 (let ((?x225 (* (- 1) ?x46)))
 (let ((?x224 (* (- 9) n)))
 (let ((?x437 (* 5 m)))
 (let ((?x525 (+ (* 27 c) (* 32 k) ?x437 ?x224 ?x225 (* 9 ?x52) ?x162 (* (- 2) (* k m)) (* (- 1) (* m m)))))
 (let (($x529 (not (= ?x525 13))))
 (let (($x145 (= (+ m (* (- 6) n)) 6)))
 (let (($x363 (not $x145)))
 (let (($x834 (or (not (= (+ k m ?x224 (* (- 3) ?x272)) 6)) $x363 $x529 $x555 (not (= (* ?x1019 (+ 6 ?x240 ?x478 ?x45 ?x273)) 0)))))
 (let (($x303 (= (+ k (* (- 3) n) (* (- 3) ?x272)) 0)))
 (let (($x267 (= (+ ?x262 k ?x264 ?x265) 0)))
 (let (($x222 (= (+ (* 18 c) (* 5 k) ?x224 ?x225 ?x162) 4)))
 (let (($x1004 (and $x145 $x222 $x267 $x303 $x834)))
 (let ((?x37 (* 18 c)))
 (let ((?x554 (+ ?x37 (* 23 k) (* 9 (* (+ 1 n) (+ c k))) ?x437 ?x224 (* (- 1) (* (+ k m) (+ k m))))))
 (let ((?x61 (* 3 n)))
 (let ((?x512 (* 3 (* (+ 1 n) (+ 1 n)))))
 (let (($x289 (not (= (+ ?x512 ?x240 ?x478 ?x61) (- 3)))))
 (let ((?x245 (* 2 (* (+ 1 n) (+ 6 m) (+ k m) (+ k m)))))
 (let ((?x71 (+ c k)))
 (let ((?x275 (+ 6 m)))
 (let ((?x442 (+ 1 n)))
 (let ((?x253 (+ (* (- 7) (* ?x275 (+ k m) ?x71 ?x71)) (* 9 (* ?x442 ?x275 ?x275 ?x71 ?x71)) ?x245)))
 (let (($x254 (not (= (* ?x253 (+ 3 ?x512 ?x240 ?x478 ?x61)) 0))))
 (let (($x423 (= (+ ?x262 (* 4 k) (* (- 1) (* ?x442 (+ k m))) m ?x264) 2)))
 (let (($x518 (= (+ ?x273 ?x240 ?x61) 0)))
 (let (($x175 (= (+ ?x37 (* 9 (* n c)) (* 5 k) ?x224 ?x225) 4)))
 (let (($x180 (and $x145 $x175 (= (+ ?x262 (* (- 1) (* n k)) k ?x264) 0) $x518 (or (not $x423) $x254 $x289 (not (= ?x554 13)) $x363))))
 (rewrite (= $x180 $x1004)))))))))))))))))))))))))))))))))))))))))))))))))
 ))
 (let (($x395 (exists ((c Int) (k Int) (m Int) (n Int) )(! (let (($x145 (= (+ m (* (- 6) n)) 6)))
 (let (($x363 (not $x145)))
 (let ((?x61 (* 3 n)))
 (let ((?x478 (* (- 1) m)))
 (let ((?x240 (* (- 1) k)))
 (let ((?x512 (* 3 (* (+ 1 n) (+ 1 n)))))
 (let (($x289 (not (= (+ ?x512 ?x240 ?x478 ?x61) (- 3)))))
 (let ((?x56 (* 2 n)))
 (let ((?x74 (+ k m)))
 (let ((?x442 (+ 1 n)))
 (let ((?x482 (* ?x442 ?x74)))
 (let ((?x323 (* (- 3) c)))
 (let ((?x307 (* 9 (* ?x442 (+ 6 m) (+ 6 m) (+ c k) (+ c k)))))
 (let ((?x253 (+ (* (- 7) (* (+ 6 m) ?x74 (+ c k) (+ c k))) ?x307 (* 2 (* ?x442 (+ 6 m) ?x74 ?x74)))))
 (let (($x254 (not (= (* ?x253 (+ 3 ?x512 ?x240 ?x478 ?x61)) 0))))
 (let ((?x80 (* ?x74 ?x74)))
 (let ((?x45 (* 9 n)))
 (let ((?x461 (* (- 18) c)))
 (let ((?x286 (+ ?x461 (* (- 23) k) (* (- 9) (* ?x442 (+ c k))) (* (- 5) m) ?x45 ?x80)))
 (let (($x243 (or (not (= ?x286 (- 13))) $x254 (not (= (+ ?x323 (* (- 4) k) ?x482 ?x478 ?x56) (- 2))) $x289 $x363)))
 (let (($x518 (= (+ (* 3 (* n n)) ?x240 ?x61) 0)))
 (let (($x315 (= (+ ?x461 (* (- 9) (* n c)) (* (- 5) k) ?x45 (* k k)) (- 4))))
 (and $x145 $x315 (= (+ ?x323 (* n k) ?x240 ?x56) 0) $x518 $x243))))))))))))))))))))))) :qid k!38))
 ))
 (let ((?x332 (lambda ((c Int) (k Int) (m Int) (n Int) )(let (($x145 (= (+ m (* (- 6) n)) 6)))
 (let (($x363 (not $x145)))
 (let ((?x224 (* (- 9) n)))
 (let ((?x437 (* 5 m)))
 (let ((?x37 (* 18 c)))
 (let ((?x554 (+ ?x37 (* 23 k) (* 9 (* (+ 1 n) (+ c k))) ?x437 ?x224 (* (- 1) (* (+ k m) (+ k m))))))
 (let ((?x61 (* 3 n)))
 (let ((?x478 (* (- 1) m)))
 (let ((?x240 (* (- 1) k)))
 (let ((?x512 (* 3 (* (+ 1 n) (+ 1 n)))))
 (let (($x289 (not (= (+ ?x512 ?x240 ?x478 ?x61) (- 3)))))
 (let ((?x245 (* 2 (* (+ 1 n) (+ 6 m) (+ k m) (+ k m)))))
 (let ((?x71 (+ c k)))
 (let ((?x275 (+ 6 m)))
 (let ((?x442 (+ 1 n)))
 (let ((?x253 (+ (* (- 7) (* ?x275 (+ k m) ?x71 ?x71)) (* 9 (* ?x442 ?x275 ?x275 ?x71 ?x71)) ?x245)))
 (let (($x254 (not (= (* ?x253 (+ 3 ?x512 ?x240 ?x478 ?x61)) 0))))
 (let ((?x264 (* (- 2) n)))
 (let ((?x262 (* 3 c)))
 (let (($x423 (= (+ ?x262 (* 4 k) (* (- 1) (* ?x442 (+ k m))) m ?x264) 2)))
 (let (($x518 (= (+ (* 3 (* n n)) ?x240 ?x61) 0)))
 (let ((?x46 (* k k)))
 (let ((?x225 (* (- 1) ?x46)))
 (let ((?x41 (* 5 k)))
 (let (($x180 (and $x145 (= (+ ?x37 (* 9 (* n c)) ?x41 ?x224 ?x225) 4) (= (+ ?x262 (* (- 1) (* n k)) k ?x264) 0) $x518 (or (not $x423) $x254 $x289 (not (= ?x554 13)) $x363))))
 (let ((?x56 (* 2 n)))
 (let ((?x74 (+ k m)))
 (let ((?x482 (* ?x442 ?x74)))
 (let ((?x323 (* (- 3) c)))
 (let ((?x80 (* ?x74 ?x74)))
 (let ((?x45 (* 9 n)))
 (let ((?x461 (* (- 18) c)))
 (let ((?x286 (+ ?x461 (* (- 23) k) (* (- 9) (* ?x442 ?x71)) (* (- 5) m) ?x45 ?x80)))
 (let (($x243 (or (not (= ?x286 (- 13))) $x254 (not (= (+ ?x323 (* (- 4) k) ?x482 ?x478 ?x56) (- 2))) $x289 $x363)))
 (let (($x315 (= (+ ?x461 (* (- 9) (* n c)) (* (- 5) k) ?x45 ?x46) (- 4))))
 (let (($x237 (and $x145 $x315 (= (+ ?x323 (* n k) ?x240 ?x56) 0) $x518 $x243)))
 (rewrite (= $x237 $x180)))))))))))))))))))))))))))))))))))))))
 ))
 (let (($x110 (exists ((c Int) (k Int) (m Int) (n Int) )(! (let ((?x66 (+ n 1)))
 (let ((?x100 (+ m 6)))
 (let ((?x74 (+ k m)))
 (let ((?x104 (+ (* (- 7) (+ c k) (+ c k) ?x74 ?x100) (* 9 (+ c k) (+ c k) ?x100 ?x100 ?x66) (* 2 ?x74 ?x74 ?x100 ?x66))))
 (let ((?x95 (+ (- (* 3 ?x66 ?x66) ?x74) (* 3 ?x66))))
 (let ((?x89 (+ (- (+ (* (- 3) (+ c k)) (* ?x74 ?x66)) ?x74) (* 2 ?x66))))
 (let ((?x80 (* ?x74 ?x74)))
 (let ((?x78 (- (- (- 4 (* 18 (+ c k))) (* 9 (+ c k) ?x66)) (* 5 ?x74))))
 (let (($x108 (or (not (= (- (+ (- 6) m 6) (* 6 ?x66)) 0)) (not (= (+ ?x78 (* 9 ?x66) ?x80) 0)) (not (= ?x89 0)) (not (= ?x95 0)) (not (= (* ?x95 ?x104) 0)))))
 (let (($x58 (= (+ (- (+ (* (- 3) c) (* k n)) k) (* 2 n)) 0)))
 (let ((?x46 (* k k)))
 (let ((?x45 (* 9 n)))
 (let ((?x41 (* 5 k)))
 (let ((?x47 (+ (- (- (- 4 (* 18 c)) (* 9 c n)) ?x41) ?x45 ?x46)))
 (and (= (- (+ (- 6) m) (* 6 n)) 0) (= ?x47 0) $x58 (= (+ (- (* 3 n n) k) (* 3 n)) 0) $x108))))))))))))))) :qid k!38))
 ))
 (let ((?x398 (lambda ((c Int) (k Int) (m Int) (n Int) )(let (($x145 (= (+ m (* (- 6) n)) 6)))
 (let (($x363 (not $x145)))
 (let ((?x61 (* 3 n)))
 (let ((?x478 (* (- 1) m)))
 (let ((?x240 (* (- 1) k)))
 (let ((?x512 (* 3 (* (+ 1 n) (+ 1 n)))))
 (let (($x289 (not (= (+ ?x512 ?x240 ?x478 ?x61) (- 3)))))
 (let ((?x56 (* 2 n)))
 (let ((?x74 (+ k m)))
 (let ((?x442 (+ 1 n)))
 (let ((?x482 (* ?x442 ?x74)))
 (let ((?x323 (* (- 3) c)))
 (let ((?x307 (* 9 (* ?x442 (+ 6 m) (+ 6 m) (+ c k) (+ c k)))))
 (let ((?x253 (+ (* (- 7) (* (+ 6 m) ?x74 (+ c k) (+ c k))) ?x307 (* 2 (* ?x442 (+ 6 m) ?x74 ?x74)))))
 (let (($x254 (not (= (* ?x253 (+ 3 ?x512 ?x240 ?x478 ?x61)) 0))))
 (let ((?x80 (* ?x74 ?x74)))
 (let ((?x45 (* 9 n)))
 (let ((?x461 (* (- 18) c)))
 (let ((?x286 (+ ?x461 (* (- 23) k) (* (- 9) (* ?x442 (+ c k))) (* (- 5) m) ?x45 ?x80)))
 (let (($x243 (or (not (= ?x286 (- 13))) $x254 (not (= (+ ?x323 (* (- 4) k) ?x482 ?x478 ?x56) (- 2))) $x289 $x363)))
 (let (($x518 (= (+ (* 3 (* n n)) ?x240 ?x61) 0)))
 (let (($x315 (= (+ ?x461 (* (- 9) (* n c)) (* (- 5) k) ?x45 (* k k)) (- 4))))
 (let (($x237 (and $x145 $x315 (= (+ ?x323 (* n k) ?x240 ?x56) 0) $x518 $x243)))
 (let ((?x66 (+ n 1)))
 (let ((?x100 (+ m 6)))
 (let ((?x71 (+ c k)))
 (let ((?x104 (+ (* (- 7) ?x71 ?x71 ?x74 ?x100) (* 9 ?x71 ?x71 ?x100 ?x100 ?x66) (* 2 ?x74 ?x74 ?x100 ?x66))))
 (let ((?x95 (+ (- (* 3 ?x66 ?x66) ?x74) (* 3 ?x66))))
 (let (($x90 (= (+ (- (+ (* (- 3) ?x71) (* ?x74 ?x66)) ?x74) (* 2 ?x66)) 0)))
 (let ((?x78 (- (- (- 4 (* 18 ?x71)) (* 9 ?x71 ?x66)) (* 5 ?x74))))
 (let (($x108 (or (not (= (- (+ (- 6) m 6) (* 6 ?x66)) 0)) (not (= (+ ?x78 (* 9 ?x66) ?x80) 0)) (not $x90) (not (= ?x95 0)) (not (= (* ?x95 ?x104) 0)))))
 (let ((?x46 (* k k)))
 (let ((?x41 (* 5 k)))
 (let ((?x47 (+ (- (- (- 4 (* 18 c)) (* 9 c n)) ?x41) ?x45 ?x46)))
 (let (($x109 (and (= (- (+ (- 6) m) (* 6 n)) 0) (= ?x47 0) (= (+ (- (+ (* (- 3) c) (* k n)) k) ?x56) 0) (= (+ (- (* 3 n n) k) ?x61) 0) $x108)))
 (rewrite (= $x109 $x237))))))))))))))))))))))))))))))))))))))
 ))
 (let ((@x111 (asserted $x110)))
 (let ((@x476 (mp (mp @x111 (quant-intro (proof-bind ?x398) (= $x110 $x395)) $x395) (rewrite (= $x395 $x395)) $x395)))
 (let ((@x462 (mp (mp @x476 (quant-intro (proof-bind ?x332) (= $x395 $x356)) $x356) (quant-intro (proof-bind ?x557) (= $x356 $x500)) $x500)))
 (let ((@x139 (mp (mp~ @x462 (sk (~ $x500 $x217)) $x217) (rewrite (= $x217 $x762)) $x762)))
 (let ((@x623 (and-elim @x139 $x358)))
 (let ((@x173 (unit-resolution ((_ th-lemma arith triangle-eq) (or (not $x358) $x809)) @x623 $x809)))
 (let (($x317 (>= ?x209 0)))
 (let ((@x187 (unit-resolution ((_ th-lemma arith triangle-eq) (or (not $x358) $x317)) @x623 $x317)))
 (let (($x735 (<= ?x259 (- 4))))
 (let ((@x219 (and-elim @x139 $x261)))
 (let ((@x944 (unit-resolution ((_ th-lemma arith triangle-eq) (or (not $x261) $x735)) @x219 $x735)))
 (let (($x695 (>= ?x259 (- 4))))
 (let ((@x965 (unit-resolution ((_ th-lemma arith triangle-eq) (or (not $x261) $x695)) @x219 $x695)))
 (let (($x744 (<= ?x427 (- 6))))
 (let ((@x125 (and-elim @x139 $x135)))
 (let ((@x213 (unit-resolution ((_ th-lemma arith triangle-eq) (or $x360 $x744)) @x125 $x744)))
 (let (($x736 (>= ?x427 (- 6))))
 (let ((@x270 (unit-resolution ((_ th-lemma arith triangle-eq) (or $x360 $x736)) @x125 $x736)))
 (let (($x229 (<= ?x357 0)))
 (let ((@x223 (and-elim @x139 $x165)))
 (let ((@x969 (unit-resolution ((_ th-lemma arith triangle-eq) (or (not $x165) $x229)) @x223 $x229)))
 (let (($x148 (>= ?x357 0)))
 (let ((@x972 (unit-resolution ((_ th-lemma arith triangle-eq) (or (not $x165) $x148)) @x223 $x148)))
 (let ((?x1672 (+ ?x182 (* (- 8) ?x241) (* (- 4) k!2) (* (- 16) c!3) (* 8 n!0))))
 (let (($x1074 (>= ?x1672 22)))
 (let (($x1527 (>= ?x1672 10)))
 (let (($x1674 (not (<= k!2 8))))
 (let (($x788 (<= k!2 36)))
 (let (($x1429 (not $x788)))
 (let (($x1569 (>= n!0 3)))
 (let (($x1330 (<= n!0 2)))
 (let (($x1408 (not $x1330)))
 (let (($x1115 (<= n!0 1)))
 (let (($x1597 (not $x1115)))
 (let (($x1182 (<= m!1 12)))
 (let (($x1405 (not $x1182)))
 (let (($x171 (>= ?x241 1)))
 (let (($x741 (<= ?x146 (- 13))))
 (let (($x409 (not $x741)))
 (let (($x287 (>= ?x146 (- 13))))
 (let ((@x782 ((_ th-lemma arith) (hypothesis (not $x287)) @x270 @x213 @x972 @x969 @x972 @x969 @x270 @x213 @x972 @x969 @x187 @x173 @x965 @x944 @x972 @x969 false)))
 (let ((@x768 (lemma @x782 $x287)))
 (let ((@x885 ((_ th-lemma arith) @x270 @x213 @x187 @x173 @x768 (hypothesis $x741) @x972 @x969 @x187 @x173 @x270 @x213 @x965 @x944 @x972 @x969 @x187 @x173 false)))
 (let (($x941 (>= n!0 0)))
 (let (($x352 (<= m!1 0)))
 (let (($x1086 (not $x352)))
 (let ((@x821 (hypothesis $x352)))
 (let (($x220 (>= ?x182 0)))
 (let ((@x260 (lemma ((_ th-lemma arith farkas 1) (hypothesis (not $x220)) false) $x220)))
 (let (($x384 (>= m!1 0)))
 (let (($x359 (>= ?x540 0)))
 (let (($x974 (not $x384)))
 (let (($x376 (= m!1 0)))
 (let (($x131 (not $x376)))
 (let ((@x458 (hypothesis (not $x359))))
 (let ((@x434 ((_ th-lemma arith farkas 1 1 1) @x458 (unit-resolution ((_ th-lemma arith triangle-eq) (or $x131 $x384)) (hypothesis $x376) $x384) (unit-resolution ((_ th-lemma arith triangle-eq) (or $x131 $x352)) (hypothesis $x376) $x352) false)))
 (let (($x1021 (not $x941)))
 (let ((@x431 (lemma ((_ th-lemma arith farkas 1 1 1 1 1) @x458 @x173 (hypothesis $x941) (hypothesis $x941) @x213 false) (or $x1021 $x359))))
 (let ((@x1032 (lemma ((_ th-lemma arith farkas -1/6 -1/6 1) @x270 (hypothesis $x1086) (hypothesis $x1021) false) (or $x941 $x352))))
 (let ((@x980 (unit-resolution ((_ th-lemma arith triangle-eq) (or $x376 $x1086 $x974)) (unit-resolution @x1032 (unit-resolution @x431 @x458 $x1021) $x352) (unit-resolution (lemma @x434 (or $x131 $x359)) @x458 $x131) $x974)))
 (let ((@x979 ((_ th-lemma arith gomory-cut 1 -1/5) @x270 @x980 (>= (+ (* 5 n!0) ?x909) (- 4)))))
 (let ((@x981 ((_ th-lemma arith) @x458 @x979 @x213 @x979 @x270 @x213 @x187 @x173 @x270 @x213 @x270 @x213 @x972 @x969 @x270 @x213 @x187 @x173 @x270 @x213 @x965 @x944 @x972 @x969 @x965 @x944 @x187 @x173 @x972 @x969 @x187 @x173 @x270 @x213 @x965 @x944 false)))
 (let ((@x930 (lemma @x981 $x359)))
 (let ((@x934 (hypothesis $x974)))
 (let ((@x1066 ((_ th-lemma arith) @x213 @x934 @x173 @x930 @x930 @x934 @x213 @x934 @x173 @x930 @x187 @x173 false)))
 (let ((@x806 (lemma @x1066 $x384)))
 (let ((@x122 ((_ th-lemma arith farkas 1/3 1/3 -1/3 -1 -1 -1 -1 1 -1/3 -3 -3 -3 -3 1/3 1 1) @x270 @x806 @x173 @x270 @x806 @x213 @x821 @x972 @x944 @x270 @x806 @x213 @x821 @x260 @x213 @x821 false)))
 (let ((@x767 (lemma @x122 $x1086)))
 (let (($x933 (<= m!1 6)))
 (let (($x569 (not $x933)))
 (let ((@x327 (hypothesis $x409)))
 (let ((@x177 (hypothesis $x941)))
 (let (($x552 (not $x171)))
 (let ((@x328 (hypothesis $x552)))
 (let ((@x422 (hypothesis $x933)))
 (let (($x406 (>= ?x429 1)))
 (let ((@x568 ((_ th-lemma arith farkas 9 24 2 2 2 1 9 1 1 1 1 1 1 84 -14 -2 2 -18 -2 -2 -30 10 1) @x972 @x173 @x177 @x213 @x422 @x944 @x270 @x177 @x213 @x422 @x177 @x213 @x422 @x177 @x213 @x944 @x260 @x328 @x213 @x422 (hypothesis (not $x406)) @x187 @x327 false)))
 (let ((@x331 (unit-resolution (lemma @x568 (or $x406 $x1021 $x569 $x171 $x741)) @x422 @x177 @x328 @x327 $x406)))
 (let ((@x498 ((_ th-lemma arith farkas 1/6 1/9 7/18 4 -2/3 7/3 7/9 1/2 1/9 1/9 1/9 1/18 1/18 1/18 1/18 1/18 1/18 1/18 1) @x944 @x260 @x270 @x177 @x213 @x331 @x173 @x972 @x177 @x213 @x422 @x177 @x213 @x422 @x177 @x213 @x422 @x768 @x328 false)))
 (let ((@x819 (unit-resolution (lemma @x498 (or $x569 $x1021 $x171 $x741)) @x328 @x177 @x327 $x569)))
 (let (($x829 (>= ?x241 0)))
 (let (($x1053 (not $x829)))
 (let ((@x380 ((_ th-lemma arith) @x187 @x173 @x270 @x213 @x187 @x173 @x972 @x969 (hypothesis $x829) @x328 @x965 @x944 @x187 @x173 false)))
 (let ((@x292 ((_ th-lemma arith) (unit-resolution (lemma @x380 (or $x1053 $x171)) @x328 $x1053) @x270 @x819 @x819 @x187 @x173 @x972 @x969 @x187 @x173 @x972 @x969 @x972 @x969 @x965 @x944 @x270 @x213 @x187 @x173 @x187 @x173 @x972 @x969 @x972 @x969 @x187 @x173 false)))
 (let ((@x1679 (unit-resolution (lemma @x292 (or $x171 $x1021 $x741)) (unit-resolution @x1032 @x767 $x941) (or $x171 $x741))))
 (let (($x274 (<= ?x732 (- 2))))
 (let (($x1058 (not $x274)))
 (let (($x236 (>= ?x732 (- 2))))
 (let ((@x1037 ((_ th-lemma arith) (hypothesis (not $x236)) @x270 @x213 @x972 @x969 @x187 @x173 false)))
 (let ((@x1433 ((_ th-lemma arith) @x270 @x213 @x187 @x173 @x972 @x969 (lemma @x1037 $x236) (hypothesis $x274) false)))
 (let ((@x1397 (hypothesis $x1182)))
 (let (($x166 (>= k!2 0)))
 (let (($x804 (<= k!2 0)))
 (let (($x546 (not $x804)))
 (let ((@x238 (hypothesis $x171)))
 (let ((@x299 (hypothesis $x804)))
 (let ((@x1085 (hypothesis $x1086)))
 (let ((@x531 ((_ th-lemma arith farkas 1/3 2 2 2 2 1/3 1/3 1/3 1/3 3 1) @x299 @x969 @x930 @x1085 @x299 @x965 @x930 @x1085 @x299 @x238 (unit-resolution @x1032 @x1085 $x941) false)))
 (let ((@x1399 (unit-resolution (lemma @x531 (or $x546 $x352 $x552)) @x767 (or $x546 $x552))))
 (let ((@x1400 (unit-resolution @x1399 @x238 $x546)))
 (let ((@x1403 (unit-resolution ((_ th-lemma arith farkas 1 1) (or $x804 $x166)) @x1400 $x166)))
 (let ((@x483 (hypothesis $x1058)))
 (let ((@x1348 ((_ th-lemma arith gcd-test 1/9 1/9 1/18 1/18 1/18 1/18 -2/3 -2/3) @x965 @x944 @x270 @x213 @x767 (hypothesis (<= m!1 1)) @x972 @x969 false)))
 (let ((@x1350 (lemma @x1348 (not (<= m!1 1)))))
 (let ((@x1404 ((_ th-lemma arith farkas 1/3 1/3 -1 -3 -3 -3 -3 -3 -3 -3 -3 -3 -3 -3 1 1 1 1 1 1 1 1 1 1) @x213 @x1397 @x972 @x238 @x969 @x483 @x1400 @x213 @x1350 @x969 @x483 @x1403 @x213 @x1397 @x969 @x483 @x1400 @x213 @x1350 @x969 @x483 @x1403 @x213 @x1397 false)))
 (let ((@x1682 (unit-resolution (lemma @x1404 (or $x1405 $x552 $x274)) (lemma @x1433 $x1058) (or $x1405 $x552))))
 (let ((@x1683 (unit-resolution @x1682 (unit-resolution @x1679 (lemma @x885 $x409) $x171) $x1405)))
 (let ((@x1688 (unit-resolution ((_ th-lemma arith assign-bounds 1 -6) (or $x1182 (not $x736) $x1597)) @x270 (or $x1182 $x1597))))
 (let ((@x1390 (hypothesis $x1330)))
 (let ((@x1629 (hypothesis $x1597)))
 (let ((@x1630 ((_ th-lemma arith gcd-test 1/3 1/3 -5/3 -5/3 -1 -1 -1 -1 -1 -1/3 -1/3 -1/3 -1/3 1/3 1/3) @x972 @x969 @x1629 @x1390 @x1629 @x1629 @x1390 @x1629 @x1390 @x1629 @x1390 @x1629 @x1390 @x187 @x173 false)))
 (let ((@x1690 (unit-resolution (lemma @x1630 (or $x1115 $x1408)) (unit-resolution @x1688 @x1683 $x1597) $x1408)))
 (let ((@x1424 (hypothesis $x788)))
 (let ((@x1566 (hypothesis $x1569)))
 (let ((@x1567 ((_ th-lemma arith) @x270 @x213 @x1566 @x173 @x1424 @x1566 @x187 @x173 @x187 @x173 @x1566 @x173 @x1424 @x187 @x173 @x1566 @x173 @x1424 @x972 @x969 @x965 @x944 @x1566 @x173 @x1424 false)))
 (let ((@x1692 (unit-resolution (lemma @x1567 (or (not $x1569) $x1429)) (unit-resolution ((_ th-lemma arith farkas 1 1) (or $x1569 $x1330)) @x1690 $x1569) $x1429)))
 (let ((@x1693 (unit-resolution ((_ th-lemma arith farkas 1 1) (or $x1674 $x788)) @x1692 $x1674)))
 (let ((@x248 ((_ th-lemma arith) (lemma ((_ th-lemma arith farkas -1/9 -4/9 -8/9 1) @x1693 @x1693 @x965 (hypothesis (not $x1527)) false) $x1527) (hypothesis (not $x1074)) @x187 @x173 @x270 @x213 @x965 @x944 @x187 @x173 @x972 @x969 @x187 @x173 @x972 @x969 @x965 @x944 @x187 @x173 false)))
 (let (($x1702 (<= c!3 4)))
 (let ((@x447 ((_ th-lemma arith) (hypothesis (not $x1702)) @x965 @x944 @x270 @x213 @x965 @x944 @x187 @x173 @x965 @x944 @x965 @x944 @x972 @x969 false)))
 ((_ th-lemma arith) (lemma @x447 $x1702) (lemma @x248 $x1074) @x965 @x944 @x187 @x173 @x965 @x944 @x187 @x173 @x965 @x944 @x972 @x969 @x965 @x944 @x270 @x213 @x187 @x173 @x965 @x944 @x187 @x173 false)))))))))))))))))))))))))))))))))))))))))))))))))))))))))))))))))))))))))))))))))))))))))))))))))))))))))))))))))))))))))))))))))))))))))))))))))))))))))))))))))))))))))))))))))))))))))

(:added-eqs                 199
 :arith-assert-diseq        33
 :arith-assert-lower        2393
 :arith-assert-upper        487
 :arith-bound-prop          4
 :arith-branch-var          37
 :arith-conflicts           50
 :arith-eq-adapter          12
 :arith-fixed-eqs           246
 :arith-gcd-tests           297
 :arith-gomory-cuts         25
 :arith-grobner             81
 :arith-ineq-splits         37
 :arith-max-min             11015
 :arith-nonlinear-bounds    872
 :arith-nonlinear-horner    727
 :arith-num-rows            19
 :arith-offset-eqs          20
 :arith-patches             123
 :arith-patches_succ        49
 :arith-pivots              1543
 :arith-pseudo-nonlinear    232
 :arith-row-summations      6629
 :arith-tableau-max-columns 96
 :arith-tableau-max-rows    19
 :conflicts                 56
 :decisions                 207
 :del-clause                84
 :final-checks              259
 :max-memory                4.10
 :memory                    3.33
 :minimized-lits            5
 :mk-bool-var               258
 :mk-clause                 168
 :num-allocs                5870049
 :num-checks                1
 :propagations              219
 :rlimit-count              463943
 :time                      0.12
 :total-time                0.13)
